NAME : C9.757065.tour
COMMENT : Length = 757065
COMMENT : Found by LKH [Keld Helsgaun] Sun Apr 15 23:10:00 2018
TYPE : TOUR
DIMENSION : 163
TOUR_SECTION
1
90
119
61
84
126
46
18
114
87
141
39
162
28
133
70
2
102
71
123
31
21
129
67
157
41
22
74
73
75
146
42
23
134
76
57
24
163
54
106
27
150
111
5
56
26
140
40
68
152
14
118
96
98
38
99
101
92
17
142
45
120
15
158
59
138
3
116
58
145
88
43
143
44
16
160
51
103
34
82
121
10
52
104
72
137
66
159
29
112
77
117
78
4
80
130
79
35
136
36
156
113
148
19
115
9
47
125
48
37
144
50
161
7
95
97
100
105
60
93
94
86
62
6
85
153
128
32
89
149
63
11
109
127
64
91
33
132
155
139
13
110
81
151
69
122
30
25
135
55
131
154
147
53
107
8
83
49
124
20
108
12
65
-1
EOF
